$comment
 DFT(B3LYP)/6311G(d,p) Optimization bianthrylacetylene
 Angle: 60
 $end

$rem
JOBTYPE opt
EXCHANGE B3LYP
CORRELATION LYP
BASIS 6311(d,p)
UNRESTRICTED FALSE
PRINT_ORBITALS FALSE
MAX_SCF_CYCLES 100
$end

$molecule
0 1
C     -2.753181     -3.704051     0.000000
C     -2.059128     -2.525240     0.000000
C     -2.726810     -1.268450     0.000000
C     -4.164810     -1.274015     0.000000
C     -4.854502     -2.523948     0.000000
C     -4.172741     -3.706884     0.000000
C     -2.027185     -0.029545     0.000000
C     -4.860342     -0.064437     0.000000
C     -4.194731     1.161912     0.000000
C     -2.757023     1.192168     0.000000
C     -2.119947     2.464549     0.000000
H     -1.041116     2.499473     0.000000
C     -2.842334     3.626298     0.000000
C     -4.261393     3.593737     0.000000
C     -4.914593     2.394705     0.000000
H     -5.945204     -0.077451     0.000000
H     -2.217455     -4.645121     0.000000
H     -0.979574     -2.534540     0.000000
H     -5.938438     -2.510886     0.000000
H     -4.708200     -4.647935     0.000000
H     -2.330232     4.580348     0.000000
H     -4.820320     4.521079     0.000000
H     -5.997907     2.356408     0.000000
C     0.608866     0.009035     0.000000
C     -0.607269     -0.010933     0.000000
C   4.263036   -1.797840   -3.113949
C   4.916194   -1.198370   -2.075638
C   4.196344   -0.581923   -1.007920
C   2.758567   -0.597045   -1.034111
C   2.121510   -1.233314   -2.136163
C   2.843863   -1.814133   -3.142170
C   4.861936   0.031173   0.053993
C   2.028778   0.013704   0.023736
C   2.728451   0.633268   1.096851
C   4.166388   0.636041   1.101654
C   4.856083   1.260937   2.184006
H   5.940018   1.254468   2.172802
C   4.174302   1.852460   3.208555
C   2.754856   1.851065   3.206139
C   2.060752   1.261613   2.185177
H   5.946799   0.037728   0.065347
H   4.821826   -2.261552   -3.917122
H   5.999503   -1.179171   -2.042383
H   1.042669   -1.250707   -2.166287
H   2.331914   -2.291199   -3.968473
H   4.709913   2.322943   4.023454
H   2.219002   2.321564   4.021067
H   0.981196   1.266314   2.193319
$end

$opt
CONSTRAINT
tors 10 7 33 34 60
ENDCONSTRAINT
$end
