$comment
 DFT(B3LYP)/6311G(d,p) Optimization bianthrylacetylene
 Angle: 30
 $end

$rem
JOBTYPE opt
EXCHANGE B3LYP
CORRELATION LYP
BASIS 6311(d,p)
UNRESTRICTED FALSE
PRINT_ORBITALS FALSE
MAX_SCF_CYCLES 100
$end

$molecule
0 1
C     -2.753181     -3.704051     0.000000
C     -2.059128     -2.525240     0.000000
C     -2.726810     -1.268450     0.000000
C     -4.164810     -1.274015     0.000000
C     -4.854502     -2.523948     0.000000
C     -4.172741     -3.706884     0.000000
C     -2.027185     -0.029545     0.000000
C     -4.860342     -0.064437     0.000000
C     -4.194731     1.161912     0.000000
C     -2.757023     1.192168     0.000000
C     -2.119947     2.464549     0.000000
H     -1.041116     2.499473     0.000000
C     -2.842334     3.626298     0.000000
C     -4.261393     3.593737     0.000000
C     -4.914593     2.394705     0.000000
H     -5.945204     -0.077451     0.000000
H     -2.217455     -4.645121     0.000000
H     -0.979574     -2.534540     0.000000
H     -5.938438     -2.510886     0.000000
H     -4.708200     -4.647935     0.000000
H     -2.330232     4.580348     0.000000
H     -4.820320     4.521079     0.000000
H     -5.997907     2.356408     0.000000
C     0.608866     0.009035     0.000000
C     -0.607269     -0.010933     0.000000
C   4.263036   -3.113949   -1.797839
C   4.916194   -2.075638   -1.198370
C   4.196344   -1.007920   -0.581923
C   2.758567   -1.034111   -0.597044
C   2.121510   -2.136163   -1.233314
C   2.843863   -3.142170   -1.814132
C   4.861936   0.053993   0.031173
C   2.028778   0.023736   0.013704
C   2.728451   1.096851   0.633267
C   4.166388   1.101654   0.636040
C   4.856083   2.184006   1.260936
H   5.940018   2.172802   1.254468
C   4.174302   3.208555   1.852460
C   2.754856   3.206139   1.851065
C   2.060752   2.185177   1.261612
H   5.946799   0.065347   0.037728
H   4.821826   -3.917122   -2.261551
H   5.999503   -2.042383   -1.179170
H   1.042669   -2.166287   -1.250706
H   2.331914   -3.968473   -2.291199
H   4.709913   4.023454   2.322942
H   2.219002   4.021067   2.321564
H   0.981196   2.193319   1.266313
$end

$opt
CONSTRAINT
tors 10 7 33 34 30
ENDCONSTRAINT
$end
