$comment
 DFT(B3LYP)/6311G(d,p) Optimization bianthrylacetylene
 Angle: 35
 $end

$rem
JOBTYPE opt
EXCHANGE B3LYP
CORRELATION LYP
BASIS 6311(d,p)
UNRESTRICTED FALSE
PRINT_ORBITALS FALSE
MAX_SCF_CYCLES 100
$end

$molecule
0 1
C     -2.753181     -3.704051     0.000000
C     -2.059128     -2.525240     0.000000
C     -2.726810     -1.268450     0.000000
C     -4.164810     -1.274015     0.000000
C     -4.854502     -2.523948     0.000000
C     -4.172741     -3.706884     0.000000
C     -2.027185     -0.029545     0.000000
C     -4.860342     -0.064437     0.000000
C     -4.194731     1.161912     0.000000
C     -2.757023     1.192168     0.000000
C     -2.119947     2.464549     0.000000
H     -1.041116     2.499473     0.000000
C     -2.842334     3.626298     0.000000
C     -4.261393     3.593737     0.000000
C     -4.914593     2.394705     0.000000
H     -5.945204     -0.077451     0.000000
H     -2.217455     -4.645121     0.000000
H     -0.979574     -2.534540     0.000000
H     -5.938438     -2.510886     0.000000
H     -4.708200     -4.647935     0.000000
H     -2.330232     4.580348     0.000000
H     -4.820320     4.521079     0.000000
H     -5.997907     2.356408     0.000000
C     0.608866     0.009035     0.000000
C     -0.607269     -0.010933     0.000000
C   4.263036   -2.945408   -2.062397
C   4.916194   -1.963294   -1.374714
C   4.196344   -0.953367   -0.667555
C   2.758567   -0.978140   -0.684901
C   2.121510   -2.020543   -1.414800
C   2.843863   -2.972101   -2.081087
C   4.861936   0.051071   0.035760
C   2.028778   0.022451   0.015721
C   2.728451   1.037485   0.726455
C   4.166388   1.042028   0.729636
C   4.856083   2.065797   1.446487
H   5.940018   2.055200   1.439067
C   4.174302   3.034893   2.125055
C   2.754856   3.032607   2.123455
C   2.060752   2.066905   1.447262
H   5.946799   0.061810   0.043280
H   4.821826   -3.705109   -2.594345
H   5.999503   -1.931840   -1.352689
H   1.042669   -2.049038   -1.434752
H   2.331914   -3.753681   -2.628356
H   4.709913   3.805686   2.664770
H   2.219002   3.803428   2.663189
H   0.981196   2.074607   1.452655
$end

$opt
CONSTRAINT
tors 10 7 33 34 35
ENDCONSTRAINT
$end
