$comment
 DFT(B3LYP)/6311G(d,p) Optimization bianthrylacetylene
 Angle: 5
 $end

$rem
JOBTYPE opt
EXCHANGE B3LYP
CORRELATION LYP
BASIS 6311(d,p)
UNRESTRICTED FALSE
PRINT_ORBITALS FALSE
MAX_SCF_CYCLES 100
$end

$molecule
0 1
C     -2.753181     -3.704051     0.000000
C     -2.059128     -2.525240     0.000000
C     -2.726810     -1.268450     0.000000
C     -4.164810     -1.274015     0.000000
C     -4.854502     -2.523948     0.000000
C     -4.172741     -3.706884     0.000000
C     -2.027185     -0.029545     0.000000
C     -4.860342     -0.064437     0.000000
C     -4.194731     1.161912     0.000000
C     -2.757023     1.192168     0.000000
C     -2.119947     2.464549     0.000000
H     -1.041116     2.499473     0.000000
C     -2.842334     3.626298     0.000000
C     -4.261393     3.593737     0.000000
C     -4.914593     2.394705     0.000000
H     -5.945204     -0.077451     0.000000
H     -2.217455     -4.645121     0.000000
H     -0.979574     -2.534540     0.000000
H     -5.938438     -2.510886     0.000000
H     -4.708200     -4.647935     0.000000
H     -2.330232     4.580348     0.000000
H     -4.820320     4.521079     0.000000
H     -5.997907     2.356408     0.000000
C     0.608866     0.009035     0.000000
C     -0.607269     -0.010933     0.000000
C   4.263036   -3.581996   -0.313384
C   4.916194   -2.387620   -0.208890
C   4.196344   -1.159417   -0.101436
C   2.758567   -1.189545   -0.104072
C   2.121510   -2.457242   -0.214981
C   2.843863   -3.614458   -0.316224
C   4.861936   0.062109   0.005434
C   2.028778   0.027304   0.002389
C   2.728451   1.261715   0.110386
C   4.166388   1.267240   0.110869
C   4.856083   2.512277   0.219796
H   5.940018   2.499389   0.218668
C   4.174302   3.690822   0.322905
C   2.754856   3.688042   0.322662
C   2.060752   2.513623   0.219914
H   5.946799   0.075169   0.006576
H   4.821826   -4.505891   -0.394214
H   5.999503   -2.349367   -0.205543
H   1.042669   -2.491894   -0.218013
H   2.331914   -4.564961   -0.399382
H   4.709913   4.628206   0.404916
H   2.219002   4.625459   0.404675
H   0.981196   2.522990   0.220733
$end

$opt
CONSTRAINT
tors 10 7 33 34 5
ENDCONSTRAINT
$end
