$comment
 DFT(B3LYP)/6311G(d,p) Optimization bianthrylacetylene
 Angle: 80
 $end

$rem
JOBTYPE opt
EXCHANGE B3LYP
CORRELATION LYP
BASIS 6311(d,p)
UNRESTRICTED FALSE
PRINT_ORBITALS FALSE
MAX_SCF_CYCLES 100
$end

$molecule
0 1
C     -2.753181     -3.704051     0.000000
C     -2.059128     -2.525240     0.000000
C     -2.726810     -1.268450     0.000000
C     -4.164810     -1.274015     0.000000
C     -4.854502     -2.523948     0.000000
C     -4.172741     -3.706884     0.000000
C     -2.027185     -0.029545     0.000000
C     -4.860342     -0.064437     0.000000
C     -4.194731     1.161912     0.000000
C     -2.757023     1.192168     0.000000
C     -2.119947     2.464549     0.000000
H     -1.041116     2.499473     0.000000
C     -2.842334     3.626298     0.000000
C     -4.261393     3.593737     0.000000
C     -4.914593     2.394705     0.000000
H     -5.945204     -0.077451     0.000000
H     -2.217455     -4.645121     0.000000
H     -0.979574     -2.534540     0.000000
H     -5.938438     -2.510886     0.000000
H     -4.708200     -4.647935     0.000000
H     -2.330232     4.580348     0.000000
H     -4.820320     4.521079     0.000000
H     -5.997907     2.356408     0.000000
C     0.608866     0.009035     0.000000
C     -0.607269     -0.010933     0.000000
C   4.263036   -0.624383   -3.541053
C   4.916194   -0.416190   -2.360328
C   4.196344   -0.202100   -1.146165
C   2.758567   -0.207351   -1.175948
C   2.121510   -0.428325   -2.429154
C   2.843863   -0.630042   -3.573144
C   4.861936   0.010826   0.061399
C   2.028778   0.004759   0.026992
C   2.728451   0.219931   1.247293
C   4.166388   0.220895   1.252755
C   4.856083   0.437919   2.483560
H   5.940018   0.435672   2.470820
C   4.174302   0.643353   3.648634
C   2.754856   0.642868   3.645886
C   2.060752   0.438153   2.484892
H   5.946799   0.013103   0.074310
H   4.821826   -0.785429   -4.454387
H   5.999503   -0.409522   -2.322513
H   1.042669   -0.434366   -2.463411
H   2.331914   -0.795725   -4.512781
H   4.709913   0.806749   4.575304
H   2.219002   0.806271   4.572588
H   0.981196   0.439786   2.494151
$end

$opt
CONSTRAINT
tors 10 7 33 34 80
ENDCONSTRAINT
$end
