$comment
 DFT(B3LYP)/6311G(d,p) Optimization bianthrylacetylene
 Angle: 20
 $end

$rem
JOBTYPE opt
EXCHANGE B3LYP
CORRELATION LYP
BASIS 6311(d,p)
UNRESTRICTED FALSE
PRINT_ORBITALS FALSE
MAX_SCF_CYCLES 100
$end

$molecule
0 1
C     -2.753181     -3.704051     0.000000
C     -2.059128     -2.525240     0.000000
C     -2.726810     -1.268450     0.000000
C     -4.164810     -1.274015     0.000000
C     -4.854502     -2.523948     0.000000
C     -4.172741     -3.706884     0.000000
C     -2.027185     -0.029545     0.000000
C     -4.860342     -0.064437     0.000000
C     -4.194731     1.161912     0.000000
C     -2.757023     1.192168     0.000000
C     -2.119947     2.464549     0.000000
H     -1.041116     2.499473     0.000000
C     -2.842334     3.626298     0.000000
C     -4.261393     3.593737     0.000000
C     -4.914593     2.394705     0.000000
H     -5.945204     -0.077451     0.000000
H     -2.217455     -4.645121     0.000000
H     -0.979574     -2.534540     0.000000
H     -5.938438     -2.510886     0.000000
H     -4.708200     -4.647935     0.000000
H     -2.330232     4.580348     0.000000
H     -4.820320     4.521079     0.000000
H     -5.997907     2.356408     0.000000
C     0.608866     0.009035     0.000000
C     -0.607269     -0.010933     0.000000
C   4.263036   -3.378833   -1.229795
C   4.916194   -2.252199   -0.819733
C   4.196344   -1.093657   -0.398059
C   2.758567   -1.122077   -0.408402
C   2.121510   -2.317872   -0.843636
C   2.843863   -3.409454   -1.240940
C   4.861936   0.058586   0.021324
C   2.028778   0.025755   0.009374
C   2.728451   1.190154   0.433180
C   4.166388   1.195365   0.435077
C   4.856083   2.369785   0.862531
H   5.940018   2.357629   0.858107
C   4.174302   3.481486   1.267157
C   2.754856   3.478864   1.266203
C   2.060752   2.371056   0.862994
H   5.946799   0.070905   0.025807
H   4.821826   -4.250327   -1.546992
H   5.999503   -2.216116   -0.806600
H   1.042669   -2.350559   -0.855534
H   2.331914   -4.306046   -1.567272
H   4.709913   4.365704   1.588986
H   2.219002   4.363113   1.588043
H   0.981196   2.379891   0.866209
$end

$opt
CONSTRAINT
tors 10 7 33 34 20
ENDCONSTRAINT
$end
