$comment
 DFT(B3LYP)/6311G(d,p) Optimization bianthrylacetylene
 Angle: 55
 $end

$rem
JOBTYPE opt
EXCHANGE B3LYP
CORRELATION LYP
BASIS 6311(d,p)
UNRESTRICTED FALSE
PRINT_ORBITALS FALSE
MAX_SCF_CYCLES 100
$end

$molecule
0 1
C     -2.753181     -3.704051     0.000000
C     -2.059128     -2.525240     0.000000
C     -2.726810     -1.268450     0.000000
C     -4.164810     -1.274015     0.000000
C     -4.854502     -2.523948     0.000000
C     -4.172741     -3.706884     0.000000
C     -2.027185     -0.029545     0.000000
C     -4.860342     -0.064437     0.000000
C     -4.194731     1.161912     0.000000
C     -2.757023     1.192168     0.000000
C     -2.119947     2.464549     0.000000
H     -1.041116     2.499473     0.000000
C     -2.842334     3.626298     0.000000
C     -4.261393     3.593737     0.000000
C     -4.914593     2.394705     0.000000
H     -5.945204     -0.077451     0.000000
H     -2.217455     -4.645121     0.000000
H     -0.979574     -2.534540     0.000000
H     -5.938438     -2.510886     0.000000
H     -4.708200     -4.647935     0.000000
H     -2.330232     4.580348     0.000000
H     -4.820320     4.521079     0.000000
H     -5.997907     2.356408     0.000000
C     0.608866     0.009035     0.000000
C     -0.607269     -0.010933     0.000000
C   4.263036   -2.062397   -2.945408
C   4.916194   -1.374714   -1.963294
C   4.196344   -0.667555   -0.953367
C   2.758567   -0.684901   -0.978140
C   2.121510   -1.414800   -2.020543
C   2.843863   -2.081087   -2.972101
C   4.861936   0.035760   0.051071
C   2.028778   0.015721   0.022451
C   2.728451   0.726455   1.037485
C   4.166388   0.729636   1.042028
C   4.856083   1.446487   2.065797
H   5.940018   1.439067   2.055200
C   4.174302   2.125055   3.034893
C   2.754856   2.123455   3.032607
C   2.060752   1.447262   2.066905
H   5.946799   0.043280   0.061810
H   4.821826   -2.594345   -3.705109
H   5.999503   -1.352689   -1.931840
H   1.042669   -1.434752   -2.049038
H   2.331914   -2.628356   -3.753681
H   4.709913   2.664770   3.805686
H   2.219002   2.663189   3.803428
H   0.981196   1.452655   2.074607
$end

$opt
CONSTRAINT
tors 10 7 33 34 55
ENDCONSTRAINT
$end
