$comment
 DFT(B3LYP)/6311G(d,p) Optimization bianthrylacetylene
 Angle: 45
 $end

$rem
JOBTYPE opt
EXCHANGE B3LYP
CORRELATION LYP
BASIS 6311(d,p)
UNRESTRICTED FALSE
PRINT_ORBITALS FALSE
MAX_SCF_CYCLES 100
$end

$molecule
0 1
C     -2.753181     -3.704051     0.000000
C     -2.059128     -2.525240     0.000000
C     -2.726810     -1.268450     0.000000
C     -4.164810     -1.274015     0.000000
C     -4.854502     -2.523948     0.000000
C     -4.172741     -3.706884     0.000000
C     -2.027185     -0.029545     0.000000
C     -4.860342     -0.064437     0.000000
C     -4.194731     1.161912     0.000000
C     -2.757023     1.192168     0.000000
C     -2.119947     2.464549     0.000000
H     -1.041116     2.499473     0.000000
C     -2.842334     3.626298     0.000000
C     -4.261393     3.593737     0.000000
C     -4.914593     2.394705     0.000000
H     -5.945204     -0.077451     0.000000
H     -2.217455     -4.645121     0.000000
H     -0.979574     -2.534540     0.000000
H     -5.938438     -2.510886     0.000000
H     -4.708200     -4.647935     0.000000
H     -2.330232     4.580348     0.000000
H     -4.820320     4.521079     0.000000
H     -5.997907     2.356408     0.000000
C     0.608866     0.009035     0.000000
C     -0.607269     -0.010933     0.000000
C   4.263036   -2.542529   -2.542529
C   4.916194   -1.694751   -1.694751
C   4.196344   -0.822963   -0.822963
C   2.758567   -0.844348   -0.844348
C   2.121510   -1.744169   -1.744169
C   2.843863   -2.565571   -2.565571
C   4.861936   0.044085   0.044085
C   2.028778   0.019380   0.019380
C   2.728451   0.895575   0.895575
C   4.166388   0.899497   0.899497
C   4.856083   1.783233   1.783233
H   5.940018   1.774086   1.774086
C   4.174302   2.619774   2.619774
C   2.754856   2.617801   2.617801
C   2.060752   1.784190   1.784190
H   5.946799   0.053355   0.053355
H   4.821826   -3.198317   -3.198317
H   5.999503   -1.667599   -1.667599
H   1.042669   -1.768766   -1.768766
H   2.331914   -3.240245   -3.240245
H   4.709913   3.285137   3.285137
H   2.219002   3.283187   3.283187
H   0.981196   1.790838   1.790838
$end

$opt
CONSTRAINT
tors 10 7 33 34 45
ENDCONSTRAINT
$end
