$comment
 DFT(B3LYP)/6311G(d,p) Optimization bianthrylacetylene
 Angle: 40
 $end

$rem
JOBTYPE opt
EXCHANGE B3LYP
CORRELATION LYP
BASIS 6311(d,p)
UNRESTRICTED FALSE
PRINT_ORBITALS FALSE
MAX_SCF_CYCLES 100
$end

$molecule
0 1
C     -2.753181     -3.704051     0.000000
C     -2.059128     -2.525240     0.000000
C     -2.726810     -1.268450     0.000000
C     -4.164810     -1.274015     0.000000
C     -4.854502     -2.523948     0.000000
C     -4.172741     -3.706884     0.000000
C     -2.027185     -0.029545     0.000000
C     -4.860342     -0.064437     0.000000
C     -4.194731     1.161912     0.000000
C     -2.757023     1.192168     0.000000
C     -2.119947     2.464549     0.000000
H     -1.041116     2.499473     0.000000
C     -2.842334     3.626298     0.000000
C     -4.261393     3.593737     0.000000
C     -4.914593     2.394705     0.000000
H     -5.945204     -0.077451     0.000000
H     -2.217455     -4.645121     0.000000
H     -0.979574     -2.534540     0.000000
H     -5.938438     -2.510886     0.000000
H     -4.708200     -4.647935     0.000000
H     -2.330232     4.580348     0.000000
H     -4.820320     4.521079     0.000000
H     -5.997907     2.356408     0.000000
C     0.608866     0.009035     0.000000
C     -0.607269     -0.010933     0.000000
C   4.263036   -2.754450   -2.311258
C   4.916194   -1.836009   -1.540595
C   4.196344   -0.891558   -0.748106
C   2.758567   -0.914725   -0.767546
C   2.121510   -1.889547   -1.585518
C   2.843863   -2.779412   -2.332204
C   4.861936   0.047760   0.040075
C   2.028778   0.020996   0.017618
C   2.728451   0.970222   0.814113
C   4.166388   0.974471   0.817678
C   4.856083   1.931867   1.621029
H   5.940018   1.921956   1.612713
C   4.174302   2.838133   2.381477
C   2.754856   2.835996   2.379683
C   2.060752   1.932902   1.621898
H   5.946799   0.057803   0.048502
H   4.821826   -3.464898   -2.907395
H   5.999503   -1.806594   -1.515912
H   1.042669   -1.916194   -1.607877
H   2.331914   -3.510321   -2.945509
H   4.709913   3.558954   2.986317
H   2.219002   3.556842   2.984545
H   0.981196   1.940105   1.627941
$end

$opt
CONSTRAINT
tors 10 7 33 34 40
ENDCONSTRAINT
$end
