$comment
 DFT(B3LYP)/6311G(d,p) Optimization bianthrylacetylene
 Angle: 0
 $end

$rem
JOBTYPE opt
EXCHANGE B3LYP
CORRELATION LYP
BASIS 6311(d,p)
UNRESTRICTED FALSE
PRINT_ORBITALS FALSE
MAX_SCF_CYCLES 100
$end

$molecule
0 1
C     -2.753181     -3.704051     0.000000
C     -2.059128     -2.525240     0.000000
C     -2.726810     -1.268450     0.000000
C     -4.164810     -1.274015     0.000000
C     -4.854502     -2.523948     0.000000
C     -4.172741     -3.706884     0.000000
C     -2.027185     -0.029545     0.000000
C     -4.860342     -0.064437     0.000000
C     -4.194731     1.161912     0.000000
C     -2.757023     1.192168     0.000000
C     -2.119947     2.464549     0.000000
H     -1.041116     2.499473     0.000000
C     -2.842334     3.626298     0.000000
C     -4.261393     3.593737     0.000000
C     -4.914593     2.394705     0.000000
H     -5.945204     -0.077451     0.000000
H     -2.217455     -4.645121     0.000000
H     -0.979574     -2.534540     0.000000
H     -5.938438     -2.510886     0.000000
H     -4.708200     -4.647935     0.000000
H     -2.330232     4.580348     0.000000
H     -4.820320     4.521079     0.000000
H     -5.997907     2.356408     0.000000
C     0.608866     0.009035     0.000000
C     -0.607269     -0.010933     0.000000
C   4.263036   -3.595679   0.000000
C   4.916194   -2.396740   0.000000
C   4.196344   -1.163846   0.000000
C   2.758567   -1.194089   0.000000
C   2.121510   -2.466628   0.000000
C   2.843863   -3.628265   0.000000
C   4.861936   0.062346   0.000000
C   2.028778   0.027408   0.000000
C   2.728451   1.266535   0.000000
C   4.166388   1.272081   0.000000
C   4.856083   2.521873   0.000000
H   5.940018   2.508936   0.000000
C   4.174302   3.704920   0.000000
C   2.754856   3.702130   0.000000
C   2.060752   2.523225   0.000000
H   5.946799   0.075456   0.000000
H   4.821826   -4.523103   0.000000
H   5.999503   -2.358341   0.000000
H   1.042669   -2.501413   0.000000
H   2.331914   -4.582398   0.000000
H   4.709913   4.645885   0.000000
H   2.219002   4.643128   0.000000
H   0.981196   2.532627   0.000000
$end

$opt
CONSTRAINT
tors 10 7 33 34 0
ENDCONSTRAINT
$end
