$comment
 DFT(B3LYP)/6311G(d,p) Optimization bianthrylacetylene
 Angle: 15
 $end

$rem
JOBTYPE opt
EXCHANGE B3LYP
CORRELATION LYP
BASIS 6311(d,p)
UNRESTRICTED FALSE
PRINT_ORBITALS FALSE
MAX_SCF_CYCLES 100
$end

$molecule
0 1
C     -2.753181     -3.704051     0.000000
C     -2.059128     -2.525240     0.000000
C     -2.726810     -1.268450     0.000000
C     -4.164810     -1.274015     0.000000
C     -4.854502     -2.523948     0.000000
C     -4.172741     -3.706884     0.000000
C     -2.027185     -0.029545     0.000000
C     -4.860342     -0.064437     0.000000
C     -4.194731     1.161912     0.000000
C     -2.757023     1.192168     0.000000
C     -2.119947     2.464549     0.000000
H     -1.041116     2.499473     0.000000
C     -2.842334     3.626298     0.000000
C     -4.261393     3.593737     0.000000
C     -4.914593     2.394705     0.000000
H     -5.945204     -0.077451     0.000000
H     -2.217455     -4.645121     0.000000
H     -0.979574     -2.534540     0.000000
H     -5.938438     -2.510886     0.000000
H     -4.708200     -4.647935     0.000000
H     -2.330232     4.580348     0.000000
H     -4.820320     4.521079     0.000000
H     -5.997907     2.356408     0.000000
C     0.608866     0.009035     0.000000
C     -0.607269     -0.010933     0.000000
C   4.263036   -3.473159   -0.930630
C   4.916194   -2.315073   -0.620322
C   4.196344   -1.124189   -0.301226
C   2.758567   -1.153401   -0.309053
C   2.121510   -2.382580   -0.638410
C   2.843863   -3.504635   -0.939064
C   4.861936   0.060222   0.016136
C   2.028778   0.026474   0.007094
C   2.728451   1.223379   0.327803
C   4.166388   1.228736   0.329239
C   4.856083   2.435942   0.652709
H   5.940018   2.423446   0.649360
C   4.174302   3.578678   0.958904
C   2.754856   3.575983   0.958182
C   2.060752   2.437248   0.653059
H   5.946799   0.072885   0.019529
H   4.821826   -4.368982   -1.170665
H   5.999503   -2.277982   -0.610384
H   1.042669   -2.416179   -0.647413
H   2.331914   -4.426257   -1.186012
H   4.709913   4.487580   1.202444
H   2.219002   4.484917   1.201730
H   0.981196   2.446330   0.655492
$end

$opt
CONSTRAINT
tors 10 7 33 34 15
ENDCONSTRAINT
$end
