$comment
 DFT(B3LYP)/6311G(d,p) Optimization bianthrylacetylene
 Angle: 75
 $end

$rem
JOBTYPE opt
EXCHANGE B3LYP
CORRELATION LYP
BASIS 6311(d,p)
UNRESTRICTED FALSE
PRINT_ORBITALS FALSE
MAX_SCF_CYCLES 100
$end

$molecule
0 1
C     -2.753181     -3.704051     0.000000
C     -2.059128     -2.525240     0.000000
C     -2.726810     -1.268450     0.000000
C     -4.164810     -1.274015     0.000000
C     -4.854502     -2.523948     0.000000
C     -4.172741     -3.706884     0.000000
C     -2.027185     -0.029545     0.000000
C     -4.860342     -0.064437     0.000000
C     -4.194731     1.161912     0.000000
C     -2.757023     1.192168     0.000000
C     -2.119947     2.464549     0.000000
H     -1.041116     2.499473     0.000000
C     -2.842334     3.626298     0.000000
C     -4.261393     3.593737     0.000000
C     -4.914593     2.394705     0.000000
H     -5.945204     -0.077451     0.000000
H     -2.217455     -4.645121     0.000000
H     -0.979574     -2.534540     0.000000
H     -5.938438     -2.510886     0.000000
H     -4.708200     -4.647935     0.000000
H     -2.330232     4.580348     0.000000
H     -4.820320     4.521079     0.000000
H     -5.997907     2.356408     0.000000
C     0.608866     0.009035     0.000000
C     -0.607269     -0.010933     0.000000
C   4.263036   -0.930630   -3.473159
C   4.916194   -0.620322   -2.315073
C   4.196344   -0.301226   -1.124189
C   2.758567   -0.309053   -1.153401
C   2.121510   -0.638410   -2.382580
C   2.843863   -0.939064   -3.504635
C   4.861936   0.016136   0.060222
C   2.028778   0.007094   0.026474
C   2.728451   0.327803   1.223379
C   4.166388   0.329239   1.228736
C   4.856083   0.652709   2.435942
H   5.940018   0.649360   2.423446
C   4.174302   0.958904   3.578678
C   2.754856   0.958182   3.575983
C   2.060752   0.653059   2.437248
H   5.946799   0.019529   0.072885
H   4.821826   -1.170665   -4.368982
H   5.999503   -0.610384   -2.277982
H   1.042669   -0.647413   -2.416179
H   2.331914   -1.186012   -4.426257
H   4.709913   1.202444   4.487580
H   2.219002   1.201730   4.484917
H   0.981196   0.655492   2.446330
$end

$opt
CONSTRAINT
tors 10 7 33 34 75
ENDCONSTRAINT
$end
