$comment
 DFT(B3LYP)/6311G(d,p) Optimization bianthrylacetylene
 Angle: 10
 $end

$rem
JOBTYPE opt
EXCHANGE B3LYP
CORRELATION LYP
BASIS 6311(d,p)
UNRESTRICTED FALSE
PRINT_ORBITALS FALSE
MAX_SCF_CYCLES 100
$end

$molecule
0 1
C     -2.753181     -3.704051     0.000000
C     -2.059128     -2.525240     0.000000
C     -2.726810     -1.268450     0.000000
C     -4.164810     -1.274015     0.000000
C     -4.854502     -2.523948     0.000000
C     -4.172741     -3.706884     0.000000
C     -2.027185     -0.029545     0.000000
C     -4.860342     -0.064437     0.000000
C     -4.194731     1.161912     0.000000
C     -2.757023     1.192168     0.000000
C     -2.119947     2.464549     0.000000
H     -1.041116     2.499473     0.000000
C     -2.842334     3.626298     0.000000
C     -4.261393     3.593737     0.000000
C     -4.914593     2.394705     0.000000
H     -5.945204     -0.077451     0.000000
H     -2.217455     -4.645121     0.000000
H     -0.979574     -2.534540     0.000000
H     -5.938438     -2.510886     0.000000
H     -4.708200     -4.647935     0.000000
H     -2.330232     4.580348     0.000000
H     -4.820320     4.521079     0.000000
H     -5.997907     2.356408     0.000000
C     0.608866     0.009035     0.000000
C     -0.607269     -0.010933     0.000000
C   4.263036   -3.541053   -0.624383
C   4.916194   -2.360328   -0.416190
C   4.196344   -1.146165   -0.202100
C   2.758567   -1.175948   -0.207351
C   2.121510   -2.429154   -0.428325
C   2.843863   -3.573144   -0.630042
C   4.861936   0.061399   0.010826
C   2.028778   0.026992   0.004759
C   2.728451   1.247293   0.219931
C   4.166388   1.252755   0.220895
C   4.856083   2.483560   0.437919
H   5.940018   2.470820   0.435672
C   4.174302   3.648634   0.643353
C   2.754856   3.645886   0.642868
C   2.060752   2.484892   0.438153
H   5.946799   0.074310   0.013103
H   4.821826   -4.454387   -0.785429
H   5.999503   -2.322513   -0.409522
H   1.042669   -2.463411   -0.434366
H   2.331914   -4.512781   -0.795725
H   4.709913   4.575304   0.806749
H   2.219002   4.572588   0.806271
H   0.981196   2.494151   0.439786
$end

$opt
CONSTRAINT
tors 10 7 33 34 10
ENDCONSTRAINT
$end
