$comment
 DFT(B3LYP)/6311G(d,p) Optimization bianthrylacetylene
 Angle: 65
 $end

$rem
JOBTYPE opt
EXCHANGE B3LYP
CORRELATION LYP
BASIS 6311(d,p)
UNRESTRICTED FALSE
PRINT_ORBITALS FALSE
MAX_SCF_CYCLES 100
$end

$molecule
0 1
C     -2.753181     -3.704051     0.000000
C     -2.059128     -2.525240     0.000000
C     -2.726810     -1.268450     0.000000
C     -4.164810     -1.274015     0.000000
C     -4.854502     -2.523948     0.000000
C     -4.172741     -3.706884     0.000000
C     -2.027185     -0.029545     0.000000
C     -4.860342     -0.064437     0.000000
C     -4.194731     1.161912     0.000000
C     -2.757023     1.192168     0.000000
C     -2.119947     2.464549     0.000000
H     -1.041116     2.499473     0.000000
C     -2.842334     3.626298     0.000000
C     -4.261393     3.593737     0.000000
C     -4.914593     2.394705     0.000000
H     -5.945204     -0.077451     0.000000
H     -2.217455     -4.645121     0.000000
H     -0.979574     -2.534540     0.000000
H     -5.938438     -2.510886     0.000000
H     -4.708200     -4.647935     0.000000
H     -2.330232     4.580348     0.000000
H     -4.820320     4.521079     0.000000
H     -5.997907     2.356408     0.000000
C     0.608866     0.009035     0.000000
C     -0.607269     -0.010933     0.000000
C   4.263036   -1.519600   -3.258792
C   4.916194   -1.012906   -2.172184
C   4.196344   -0.491863   -1.054803
C   2.758567   -0.504644   -1.082212
C   2.121510   -1.042442   -2.235524
C   2.843863   -1.533371   -3.288325
C   4.861936   0.026349   0.056505
C   2.028778   0.011583   0.024840
C   2.728451   0.535261   1.147871
C   4.166388   0.537605   1.152897
C   4.856083   1.065790   2.285593
H   5.940018   1.060322   2.273868
C   4.174302   1.565767   3.357798
C   2.754856   1.564588   3.355269
C   2.060752   1.066361   2.286818
H   5.946799   0.031889   0.068386
H   4.821826   -1.911546   -4.099323
H   5.999503   -0.996678   -2.137383
H   1.042669   -1.057143   -2.267050
H   2.331914   -1.936605   -4.153063
H   4.709913   1.963436   4.210602
H   2.219002   1.962271   4.208103
H   0.981196   1.070334   2.295340
$end

$opt
CONSTRAINT
tors 10 7 33 34 65
ENDCONSTRAINT
$end
